p tw 121 3630
1 2
1 34
1 45
1 56
1 67
1 78
1 89
1 100
1 111
1 3
1 25
1 28
1 29
1 30
1 35
1 39
1 43
1 44
1 46
1 48
1 50
1 52
1 53
1 54
1 59
1 62
1 64
1 65
1 66
1 71
1 74
1 76
1 77
1 79
1 83
1 87
1 92
1 93
1 94
1 96
1 99
1 104
1 105
1 106
1 108
1 112
1 116
1 117
1 118
1 120
1 4
1 6
1 7
1 8
1 12
1 17
1 21
1 22
1 23
1 26
2 34
2 45
2 56
2 67
2 78
2 89
2 100
2 111
2 3
2 27
2 29
2 30
2 31
2 36
2 37
2 40
2 44
2 46
2 47
2 51
2 53
2 54
2 55
2 60
2 63
2 65
2 66
2 68
2 72
2 75
2 77
2 79
2 80
2 84
2 85
2 88
2 93
2 94
2 95
2 97
2 101
2 105
2 106
2 107
2 109
2 113
2 117
2 118
2 119
2 5
2 7
2 8
2 9
2 13
2 15
2 18
2 22
2 23
2 24
34 45
34 56
34 67
34 78
34 89
34 100
34 111
34 3
34 14
34 28
34 30
34 31
34 32
34 38
34 41
34 46
34 47
34 48
34 49
34 52
34 54
34 55
34 57
34 61
34 64
34 66
34 68
34 69
34 73
34 76
34 79
34 80
34 81
34 86
34 90
34 94
34 95
34 96
34 98
34 102
34 106
34 107
34 108
34 110
34 114
34 118
34 119
34 120
34 121
34 6
34 8
34 9
34 10
34 16
34 19
34 23
34 24
34 26
45 56
45 67
45 78
45 89
45 100
45 111
45 3
45 25
45 29
45 31
45 32
45 33
45 37
45 39
45 42
45 47
45 48
45 50
45 53
45 55
45 57
45 58
45 62
45 65
45 68
45 69
45 70
45 74
45 77
45 80
45 81
45 82
45 85
45 87
45 91
45 95
45 96
45 97
45 99
45 103
45 107
45 108
45 109
45 112
45 115
45 119
45 120
45 4
45 7
45 9
45 10
45 11
45 15
45 17
45 20
45 24
45 26
56 67
56 78
56 89
56 100
56 111
56 3
56 27
56 30
56 32
56 33
56 35
56 37
56 38
56 40
56 43
56 48
56 51
56 54
56 57
56 58
56 59
56 63
56 66
56 69
56 70
56 71
56 75
56 79
56 81
56 82
56 83
56 85
56 86
56 88
56 92
56 96
56 97
56 98
56 101
56 104
56 108
56 109
56 110
56 113
56 116
56 120
56 5
56 8
56 10
56 11
56 12
56 15
56 16
56 18
56 21
56 26
67 78
67 89
67 100
67 111
67 3
67 28
67 31
67 33
67 35
67 36
67 37
67 38
67 39
67 41
67 44
67 52
67 55
67 58
67 59
67 60
67 64
67 68
67 70
67 71
67 72
67 76
67 80
67 82
67 83
67 84
67 85
67 86
67 87
67 90
67 93
67 97
67 98
67 99
67 102
67 105
67 109
67 110
67 112
67 114
67 117
67 6
67 9
67 11
67 12
67 13
67 15
67 16
67 17
67 19
67 22
78 89
78 100
78 111
78 3
78 14
78 29
78 32
78 35
78 36
78 38
78 39
78 40
78 42
78 46
78 49
78 53
78 57
78 59
78 60
78 61
78 65
78 69
78 71
78 72
78 73
78 77
78 81
78 83
78 84
78 86
78 87
78 88
78 91
78 94
78 98
78 99
78 101
78 103
78 106
78 110
78 112
78 113
78 115
78 118
78 121
78 7
78 10
78 12
78 13
78 16
78 17
78 18
78 20
78 23
89 100
89 111
89 3
89 14
89 25
89 30
89 33
89 36
89 39
89 40
89 41
89 43
89 47
89 49
89 50
89 54
89 58
89 60
89 61
89 62
89 66
89 70
89 72
89 73
89 74
89 79
89 82
89 84
89 87
89 88
89 90
89 92
89 95
89 99
89 101
89 102
89 104
89 107
89 112
89 113
89 114
89 116
89 119
89 121
89 4
89 8
89 11
89 13
89 17
89 18
89 19
89 21
89 24
100 111
100 3
100 14
100 25
100 27
100 31
100 35
100 40
100 41
100 42
100 44
100 48
100 49
100 50
100 51
100 55
100 59
100 61
100 62
100 63
100 68
100 71
100 73
100 74
100 75
100 80
100 83
100 88
100 90
100 91
100 93
100 96
100 101
100 102
100 103
100 105
100 108
100 113
100 114
100 115
100 117
100 120
100 121
100 4
100 5
100 9
100 12
100 18
100 19
100 20
100 22
100 26
111 3
111 25
111 27
111 28
111 32
111 36
111 37
111 41
111 42
111 43
111 46
111 50
111 51
111 52
111 57
111 60
111 62
111 63
111 64
111 69
111 72
111 74
111 75
111 76
111 81
111 84
111 85
111 90
111 91
111 92
111 94
111 97
111 102
111 103
111 104
111 106
111 109
111 114
111 115
111 116
111 118
111 4
111 5
111 6
111 10
111 13
111 15
111 19
111 20
111 21
111 23
3 14
3 27
3 28
3 29
3 33
3 38
3 42
3 43
3 44
3 47
3 49
3 51
3 52
3 53
3 58
3 61
3 63
3 64
3 65
3 70
3 73
3 75
3 76
3 77
3 82
3 86
3 91
3 92
3 93
3 95
3 98
3 103
3 104
3 105
3 107
3 110
3 115
3 116
3 117
3 119
3 121
3 5
3 6
3 7
3 11
3 16
3 20
3 21
3 22
3 24
14 25
14 27
14 28
14 29
14 30
14 31
14 32
14 33
14 35
14 36
14 38
14 40
14 41
14 42
14 47
14 51
14 55
14 57
14 58
14 60
14 62
14 64
14 65
14 66
14 71
14 74
14 76
14 77
14 79
14 83
14 86
14 88
14 90
14 91
14 95
14 99
14 104
14 105
14 106
14 108
14 112
14 116
14 117
14 118
14 120
14 5
14 9
14 10
14 11
14 13
14 16
14 18
14 19
14 20
14 24
25 27
25 28
25 29
25 30
25 31
25 32
25 33
25 35
25 36
25 39
25 41
25 42
25 43
25 48
25 49
25 52
25 57
25 58
25 59
25 63
25 65
25 66
25 68
25 72
25 75
25 77
25 79
25 80
25 84
25 87
25 90
25 91
25 92
25 96
25 97
25 101
25 105
25 106
25 107
25 109
25 113
25 117
25 118
25 119
25 121
25 6
25 10
25 11
25 12
25 17
25 19
25 20
25 21
25 26
27 28
27 29
27 30
27 31
27 32
27 33
27 35
27 36
27 37
27 40
27 42
27 43
27 44
27 50
27 53
27 58
27 59
27 60
27 61
27 64
27 66
27 68
27 69
27 73
27 76
27 79
27 80
27 81
27 85
27 88
27 91
27 92
27 93
27 98
27 102
27 106
27 107
27 108
27 110
27 114
27 118
27 119
27 120
27 4
27 7
27 11
27 12
27 13
27 15
27 18
27 20
27 21
27 22
28 29
28 30
28 31
28 32
28 33
28 35
28 36
28 38
28 41
28 43
28 44
28 46
28 49
28 51
28 54
28 59
28 60
28 62
28 65
28 68
28 69
28 70
28 74
28 77
28 80
28 81
28 82
28 86
28 90
28 92
28 93
28 94
28 97
28 99
28 103
28 107
28 108
28 109
28 112
28 115
28 119
28 120
28 121
28 5
28 8
28 12
28 13
28 16
28 19
28 21
28 22
28 23
29 30
29 31
29 32
29 33
29 35
29 36
29 39
29 42
29 44
29 46
29 47
29 49
29 50
29 52
29 55
29 60
29 63
29 66
29 69
29 70
29 71
29 75
29 79
29 81
29 82
29 83
29 87
29 91
29 93
29 94
29 95
29 97
29 98
29 101
29 104
29 108
29 109
29 110
29 113
29 116
29 120
29 121
29 4
29 6
29 9
29 13
29 17
29 20
29 22
29 23
29 24
30 31
30 32
30 33
30 35
30 36
30 40
30 43
30 46
30 47
30 48
30 49
30 50
30 51
30 53
30 57
30 64
30 68
30 70
30 71
30 72
30 76
30 80
30 82
30 83
30 84
30 88
30 92
30 94
30 95
30 96
30 97
30 98
30 99
30 102
30 105
30 109
30 110
30 112
30 114
30 117
30 121
30 4
30 5
30 7
30 10
30 18
30 21
30 23
30 24
30 26
31 32
31 33
31 35
31 36
31 37
31 41
31 44
31 47
31 48
31 50
31 51
31 52
31 54
31 58
31 61
31 65
31 69
31 71
31 72
31 73
31 77
31 81
31 83
31 84
31 85
31 90
31 93
31 95
31 96
31 98
31 99
31 101
31 103
31 106
31 110
31 112
31 113
31 115
31 118
31 4
31 5
31 6
31 8
31 11
31 15
31 19
31 22
31 24
31 26
32 33
32 35
32 36
32 37
32 38
32 42
32 46
32 48
32 51
32 52
32 53
32 55
32 59
32 61
32 62
32 66
32 70
32 72
32 73
32 74
32 79
32 82
32 84
32 85
32 86
32 91
32 94
32 96
32 99
32 101
32 102
32 104
32 107
32 112
32 113
32 114
32 116
32 119
32 5
32 6
32 7
32 9
32 12
32 15
32 16
32 20
32 23
32 26
33 35
33 36
33 37
33 38
33 39
33 43
33 47
33 52
33 53
33 54
33 57
33 60
33 61
33 62
33 63
33 68
33 71
33 73
33 74
33 75
33 80
33 83
33 85
33 86
33 87
33 92
33 95
33 101
33 102
33 103
33 105
33 108
33 113
33 114
33 115
33 117
33 120
33 6
33 7
33 8
33 10
33 13
33 15
33 16
33 17
33 21
33 24
35 36
35 38
35 39
35 40
35 44
35 48
35 49
35 53
35 54
35 55
35 58
35 62
35 63
35 64
35 69
35 72
35 74
35 75
35 76
35 81
35 84
35 86
35 87
35 88
35 93
35 96
35 97
35 102
35 103
35 104
35 106
35 109
35 114
35 115
35 116
35 118
35 121
35 7
35 8
35 9
35 11
35 16
35 17
35 18
35 22
35 26
36 37
36 39
36 40
36 41
36 46
36 50
36 54
36 55
36 57
36 59
36 61
36 63
36 64
36 65
36 70
36 73
36 75
36 76
36 77
36 82
36 85
36 87
36 88
36 90
36 94
36 98
36 103
36 104
36 105
36 107
36 110
36 115
36 116
36 117
36 119
36 4
36 8
36 9
36 10
36 12
36 15
36 17
36 18
36 19
36 23
37 38
37 39
37 40
37 41
37 42
37 43
37 44
37 46
37 47
37 48
37 50
37 52
37 53
37 54
37 59
37 63
37 68
37 69
37 70
37 72
37 74
37 76
37 77
37 79
37 83
37 86
37 88
37 90
37 91
37 95
37 98
37 101
37 102
37 103
37 107
37 112
37 116
37 117
37 118
37 120
37 5
37 9
37 10
37 11
37 13
37 17
37 21
37 22
37 23
37 26
38 39
38 40
38 41
38 42
38 43
38 44
38 46
38 47
38 48
38 51
38 53
38 54
38 55
38 60
38 61
38 64
38 69
38 70
38 71
38 75
38 77
38 79
38 80
38 84
38 87
38 90
38 91
38 92
38 96
38 99
38 102
38 103
38 104
38 108
38 109
38 113
38 117
38 118
38 119
38 121
38 6
38 10
38 11
38 12
38 15
38 18
38 22
38 23
38 24
39 40
39 41
39 42
39 43
39 44
39 46
39 47
39 48
39 49
39 52
39 54
39 55
39 57
39 62
39 65
39 70
39 71
39 72
39 73
39 76
39 79
39 80
39 81
39 85
39 88
39 91
39 92
39 93
39 97
39 101
39 103
39 104
39 105
39 110
39 114
39 118
39 119
39 120
39 4
39 7
39 11
39 12
39 13
39 16
39 19
39 23
39 24
39 26
40 41
40 42
40 43
40 44
40 46
40 47
40 48
40 50
40 53
40 55
40 57
40 58
40 61
40 63
40 66
40 71
40 72
40 74
40 77
40 80
40 81
40 82
40 86
40 90
40 92
40 93
40 94
40 98
40 102
40 104
40 105
40 106
40 109
40 112
40 115
40 119
40 120
40 121
40 5
40 8
40 12
40 13
40 15
40 17
40 20
40 24
40 26
41 42
41 43
41 44
41 46
41 47
41 48
41 51
41 54
41 57
41 58
41 59
41 61
41 62
41 64
41 68
41 72
41 75
41 79
41 81
41 82
41 83
41 87
41 91
41 93
41 94
41 95
41 99
41 103
41 105
41 106
41 107
41 109
41 110
41 113
41 116
41 120
41 121
41 4
41 6
41 9
41 13
41 15
41 16
41 18
41 21
41 26
42 43
42 44
42 46
42 47
42 48
42 52
42 55
42 58
42 59
42 60
42 61
42 62
42 63
42 65
42 69
42 76
42 80
42 82
42 83
42 84
42 88
42 92
42 94
42 95
42 96
42 101
42 104
42 106
42 107
42 108
42 109
42 110
42 112
42 114
42 117
42 121
42 4
42 5
42 7
42 10
42 15
42 16
42 17
42 19
42 22
43 44
43 46
43 47
43 48
43 49
43 53
43 57
43 59
43 60
43 62
43 63
43 64
43 66
43 70
43 73
43 77
43 81
43 83
43 84
43 85
43 90
43 93
43 95
43 96
43 97
43 102
43 105
43 107
43 108
43 110
43 112
43 113
43 115
43 118
43 4
43 5
43 6
43 8
43 11
43 16
43 17
43 18
43 20
43 23
44 46
44 47
44 48
44 49
44 50
44 54
44 58
44 60
44 63
44 64
44 65
44 68
44 71
44 73
44 74
44 79
44 82
44 84
44 85
44 86
44 91
44 94
44 96
44 97
44 98
44 103
44 106
44 108
44 112
44 113
44 114
44 116
44 119
44 5
44 6
44 7
44 9
44 12
44 17
44 18
44 19
44 21
44 24
46 47
46 48
46 49
46 50
46 51
46 55
46 59
46 64
46 65
46 66
46 69
46 72
46 73
46 74
46 75
46 80
46 83
46 85
46 86
46 87
46 92
46 95
46 97
46 98
46 99
46 104
46 107
46 113
46 114
46 115
46 117
46 120
46 6
46 7
46 8
46 10
46 13
46 18
46 19
46 20
46 22
46 26
47 48
47 50
47 51
47 52
47 57
47 60
47 61
47 65
47 66
47 68
47 70
47 74
47 75
47 76
47 81
47 84
47 86
47 87
47 88
47 93
47 96
47 98
47 99
47 101
47 105
47 108
47 109
47 114
47 115
47 116
47 118
47 121
47 7
47 8
47 9
47 11
47 15
47 19
47 20
47 21
47 23
48 49
48 51
48 52
48 53
48 58
48 62
48 66
48 68
48 69
48 71
48 73
48 75
48 76
48 77
48 82
48 85
48 87
48 88
48 90
48 94
48 97
48 99
48 101
48 102
48 106
48 110
48 115
48 116
48 117
48 119
48 4
48 8
48 9
48 10
48 12
48 16
48 20
48 21
48 22
48 24
49 50
49 51
49 52
49 53
49 54
49 55
49 57
49 58
49 59
49 60
49 62
49 64
49 65
49 66
49 71
49 75
49 80
49 81
49 82
49 84
49 86
49 88
49 90
49 91
49 95
49 98
49 101
49 102
49 103
49 107
49 110
49 113
49 114
49 115
49 119
49 5
49 9
49 10
49 11
49 13
49 17
49 21
49 22
49 23
49 26
50 51
50 52
50 53
50 54
50 55
50 57
50 58
50 59
50 60
50 63
50 65
50 66
50 68
50 72
50 73
50 76
50 81
50 82
50 83
50 87
50 90
50 91
50 92
50 96
50 99
50 102
50 103
50 104
50 108
50 112
50 114
50 115
50 116
50 120
50 121
50 6
50 10
50 11
50 12
50 15
50 18
50 22
50 23
50 24
51 52
51 53
51 54
51 55
51 57
51 58
51 59
51 60
51 61
51 64
51 66
51 68
51 69
51 74
51 77
51 82
51 83
51 84
51 85
51 88
51 91
51 92
51 93
51 97
51 101
51 103
51 104
51 105
51 109
51 113
51 115
51 116
51 117
51 4
51 7
51 11
51 12
51 13
51 16
51 19
51 23
51 24
51 26
52 53
52 54
52 55
52 57
52 58
52 59
52 60
52 62
52 65
52 68
52 69
52 70
52 73
52 75
52 79
52 83
52 84
52 86
52 90
52 92
52 93
52 94
52 98
52 102
52 104
52 105
52 106
52 110
52 114
52 116
52 117
52 118
52 121
52 5
52 8
52 12
52 13
52 15
52 17
52 20
52 24
52 26
53 54
53 55
53 57
53 58
53 59
53 60
53 63
53 66
53 69
53 70
53 71
53 73
53 74
53 76
53 80
53 84
53 87
53 91
53 93
53 94
53 95
53 99
53 103
53 105
53 106
53 107
53 112
53 115
53 117
53 118
53 119
53 121
53 4
53 6
53 9
53 13
53 15
53 16
53 18
53 21
53 26
54 55
54 57
54 58
54 59
54 60
54 64
54 68
54 70
54 71
54 72
54 73
54 74
54 75
54 77
54 81
54 88
54 92
54 94
54 95
54 96
54 101
54 104
54 106
54 107
54 108
54 113
54 116
54 118
54 119
54 120
54 121
54 4
54 5
54 7
54 10
54 15
54 16
54 17
54 19
54 22
55 57
55 58
55 59
55 60
55 61
55 65
55 69
55 71
55 72
55 74
55 75
55 76
55 79
55 82
55 85
55 90
55 93
55 95
55 96
55 97
55 102
55 105
55 107
55 108
55 109
55 114
55 117
55 119
55 120
55 4
55 5
55 6
55 8
55 11
55 16
55 17
55 18
55 20
55 23
57 58
57 59
57 60
57 61
57 62
57 66
57 70
57 72
57 75
57 76
57 77
57 80
57 83
57 85
57 86
57 91
57 94
57 96
57 97
57 98
57 103
57 106
57 108
57 109
57 110
57 115
57 118
57 120
57 5
57 6
57 7
57 9
57 12
57 17
57 18
57 19
57 21
57 24
58 59
58 60
58 61
58 62
58 63
58 68
58 71
58 76
58 77
58 79
58 81
58 84
58 85
58 86
58 87
58 92
58 95
58 97
58 98
58 99
58 104
58 107
58 109
58 110
58 112
58 116
58 119
58 6
58 7
58 8
58 10
58 13
58 18
58 19
58 20
58 22
58 26
59 60
59 62
59 63
59 64
59 69
59 72
59 73
59 77
59 79
59 80
59 82
59 86
59 87
59 88
59 93
59 96
59 98
59 99
59 101
59 105
59 108
59 110
59 112
59 113
59 117
59 120
59 121
59 7
59 8
59 9
59 11
59 15
59 19
59 20
59 21
59 23
60 61
60 63
60 64
60 65
60 70
60 74
60 79
60 80
60 81
60 83
60 85
60 87
60 88
60 90
60 94
60 97
60 99
60 101
60 102
60 106
60 109
60 112
60 113
60 114
60 118
60 4
60 8
60 9
60 10
60 12
60 16
60 20
60 21
60 22
60 24
61 62
61 63
61 64
61 65
61 66
61 68
61 69
61 70
61 71
61 72
61 74
61 76
61 77
61 79
61 83
61 87
61 92
61 93
61 94
61 96
61 98
61 101
61 102
61 103
61 107
61 110
61 113
61 114
61 115
61 119
61 4
61 6
61 7
61 8
61 12
61 17
61 21
61 22
61 23
61 26
62 63
62 64
62 65
62 66
62 68
62 69
62 70
62 71
62 72
62 75
62 77
62 79
62 80
62 84
62 85
62 88
62 93
62 94
62 95
62 99
62 102
62 103
62 104
62 108
62 112
62 114
62 115
62 116
62 120
62 5
62 7
62 8
62 9
62 13
62 15
62 18
62 22
62 23
62 24
63 64
63 65
63 66
63 68
63 69
63 70
63 71
63 72
63 73
63 76
63 79
63 80
63 81
63 86
63 90
63 94
63 95
63 96
63 97
63 101
63 103
63 104
63 105
63 109
63 113
63 115
63 116
63 117
63 121
63 6
63 8
63 9
63 10
63 16
63 19
63 23
63 24
63 26
64 65
64 66
64 68
64 69
64 70
64 71
64 72
64 74
64 77
64 80
64 81
64 82
64 85
64 87
64 91
64 95
64 96
64 98
64 102
64 104
64 105
64 106
64 110
64 114
64 116
64 117
64 118
64 4
64 7
64 9
64 10
64 11
64 15
64 17
64 20
64 24
64 26
65 66
65 68
65 69
65 70
65 71
65 72
65 75
65 79
65 81
65 82
65 83
65 85
65 86
65 88
65 92
65 96
65 99
65 103
65 105
65 106
65 107
65 112
65 115
65 117
65 118
65 119
65 5
65 8
65 10
65 11
65 12
65 15
65 16
65 18
65 21
65 26
66 68
66 69
66 70
66 71
66 72
66 76
66 80
66 82
66 83
66 84
66 85
66 86
66 87
66 90
66 93
66 101
66 104
66 106
66 107
66 108
66 113
66 116
66 118
66 119
66 120
66 6
66 9
66 11
66 12
66 13
66 15
66 16
66 17
66 19
66 22
68 69
68 70
68 71
68 72
68 73
68 77
68 81
68 83
68 84
68 86
68 87
68 88
68 91
68 94
68 97
68 102
68 105
68 107
68 108
68 109
68 114
68 117
68 119
68 120
68 121
68 7
68 10
68 12
68 13
68 16
68 17
68 18
68 20
68 23
69 70
69 71
69 72
69 73
69 74
69 79
69 82
69 84
69 87
69 88
69 90
69 92
69 95
69 97
69 98
69 103
69 106
69 108
69 109
69 110
69 115
69 118
69 120
69 121
69 4
69 8
69 11
69 13
69 17
69 18
69 19
69 21
69 24
70 71
70 72
70 73
70 74
70 75
70 80
70 83
70 88
70 90
70 91
70 93
70 96
70 97
70 98
70 99
70 104
70 107
70 109
70 110
70 112
70 116
70 119
70 121
70 4
70 5
70 9
70 12
70 18
70 19
70 20
70 22
70 26
71 72
71 74
71 75
71 76
71 81
71 84
71 85
71 90
71 91
71 92
71 94
71 98
71 99
71 101
71 105
71 108
71 110
71 112
71 113
71 117
71 120
71 4
71 5
71 6
71 10
71 13
71 15
71 19
71 20
71 21
71 23
72 73
72 75
72 76
72 77
72 82
72 86
72 91
72 92
72 93
72 95
72 97
72 99
72 101
72 102
72 106
72 109
72 112
72 113
72 114
72 118
72 121
72 5
72 6
72 7
72 11
72 16
72 20
72 21
72 22
72 24
73 74
73 75
73 76
73 77
73 79
73 80
73 81
73 82
73 83
73 84
73 86
73 88
73 90
73 91
73 95
73 99
73 104
73 105
73 106
73 108
73 110
73 113
73 114
73 115
73 119
73 4
73 6
73 7
73 8
73 12
73 16
73 18
73 19
73 20
73 24
74 75
74 76
74 77
74 79
74 80
74 81
74 82
74 83
74 84
74 87
74 90
74 91
74 92
74 96
74 97
74 101
74 105
74 106
74 107
74 112
74 114
74 115
74 116
74 120
74 5
74 7
74 8
74 9
74 13
74 17
74 19
74 20
74 21
74 26
75 76
75 77
75 79
75 80
75 81
75 82
75 83
75 84
75 85
75 88
75 91
75 92
75 93
75 98
75 102
75 106
75 107
75 108
75 109
75 113
75 115
75 116
75 117
75 121
75 6
75 8
75 9
75 10
75 15
75 18
75 20
75 21
75 22
76 77
76 79
76 80
76 81
76 82
76 83
76 84
76 86
76 90
76 92
76 93
76 94
76 97
76 99
76 103
76 107
76 108
76 110
76 114
76 116
76 117
76 118
76 4
76 7
76 9
76 10
76 11
76 16
76 19
76 21
76 22
76 23
77 79
77 80
77 81
77 82
77 83
77 84
77 87
77 91
77 93
77 94
77 95
77 97
77 98
77 101
77 104
77 108
77 112
77 115
77 117
77 118
77 119
77 5
77 8
77 10
77 11
77 12
77 17
77 20
77 22
77 23
77 24
79 80
79 81
79 82
79 83
79 84
79 88
79 92
79 94
79 95
79 96
79 97
79 98
79 99
79 102
79 105
79 113
79 116
79 118
79 119
79 120
79 6
79 9
79 11
79 12
79 13
79 18
79 21
79 23
79 24
79 26
80 81
80 82
80 83
80 84
80 85
80 90
80 93
80 95
80 96
80 98
80 99
80 101
80 103
80 106
80 109
80 114
80 117
80 119
80 120
80 121
80 7
80 10
80 12
80 13
80 15
80 19
80 22
80 24
80 26
81 82
81 83
81 84
81 85
81 86
81 91
81 94
81 96
81 99
81 101
81 102
81 104
81 107
81 109
81 110
81 115
81 118
81 120
81 121
81 4
81 8
81 11
81 13
81 15
81 16
81 20
81 23
81 26
82 83
82 84
82 85
82 86
82 87
82 92
82 95
82 101
82 102
82 103
82 105
82 108
82 109
82 110
82 112
82 116
82 119
82 121
82 4
82 5
82 9
82 12
82 15
82 16
82 17
82 21
82 24
83 84
83 86
83 87
83 88
83 93
83 96
83 97
83 102
83 103
83 104
83 106
83 110
83 112
83 113
83 117
83 120
83 4
83 5
83 6
83 10
83 13
83 16
83 17
83 18
83 22
83 26
84 85
84 87
84 88
84 90
84 94
84 98
84 103
84 104
84 105
84 107
84 109
84 112
84 113
84 114
84 118
84 121
84 5
84 6
84 7
84 11
84 15
84 17
84 18
84 19
84 23
85 86
85 87
85 88
85 90
85 91
85 92
85 93
85 94
85 95
85 96
85 98
85 101
85 102
85 103
85 107
85 112
85 116
85 117
85 118
85 120
85 4
85 6
85 7
85 8
85 12
85 16
85 18
85 19
85 20
85 24
86 87
86 88
86 90
86 91
86 92
86 93
86 94
86 95
86 96
86 99
86 102
86 103
86 104
86 108
86 109
86 113
86 117
86 118
86 119
86 5
86 7
86 8
86 9
86 13
86 17
86 19
86 20
86 21
86 26
87 88
87 90
87 91
87 92
87 93
87 94
87 95
87 96
87 97
87 101
87 103
87 104
87 105
87 110
87 114
87 118
87 119
87 120
87 121
87 6
87 8
87 9
87 10
87 15
87 18
87 20
87 21
87 22
88 90
88 91
88 92
88 93
88 94
88 95
88 96
88 98
88 102
88 104
88 105
88 106
88 109
88 112
88 115
88 119
88 120
88 4
88 7
88 9
88 10
88 11
88 16
88 19
88 21
88 22
88 23
90 91
90 92
90 93
90 94
90 95
90 96
90 99
90 103
90 105
90 106
90 107
90 109
90 110
90 113
90 116
90 120
90 5
90 8
90 10
90 11
90 12
90 17
90 20
90 22
90 23
90 24
91 92
91 93
91 94
91 95
91 96
91 101
91 104
91 106
91 107
91 108
91 109
91 110
91 112
91 114
91 117
91 6
91 9
91 11
91 12
91 13
91 18
91 21
91 23
91 24
91 26
92 93
92 94
92 95
92 96
92 97
92 102
92 105
92 107
92 108
92 110
92 112
92 113
92 115
92 118
92 121
92 7
92 10
92 12
92 13
92 15
92 19
92 22
92 24
92 26
93 94
93 95
93 96
93 97
93 98
93 103
93 106
93 108
93 112
93 113
93 114
93 116
93 119
93 121
93 4
93 8
93 11
93 13
93 15
93 16
93 20
93 23
93 26
94 95
94 96
94 97
94 98
94 99
94 104
94 107
94 113
94 114
94 115
94 117
94 120
94 121
94 4
94 5
94 9
94 12
94 15
94 16
94 17
94 21
94 24
95 96
95 98
95 99
95 101
95 105
95 108
95 109
95 114
95 115
95 116
95 118
95 4
95 5
95 6
95 10
95 13
95 16
95 17
95 18
95 22
95 26
96 97
96 99
96 101
96 102
96 106
96 110
96 115
96 116
96 117
96 119
96 121
96 5
96 6
96 7
96 11
96 15
96 17
96 18
96 19
96 23
97 98
97 99
97 101
97 102
97 103
97 104
97 105
97 106
97 107
97 108
97 110
97 113
97 114
97 115
97 119
97 5
97 9
97 10
97 11
97 13
97 16
97 18
97 19
97 20
97 24
98 99
98 101
98 102
98 103
98 104
98 105
98 106
98 107
98 108
98 112
98 114
98 115
98 116
98 120
98 121
98 6
98 10
98 11
98 12
98 17
98 19
98 20
98 21
98 26
99 101
99 102
99 103
99 104
99 105
99 106
99 107
99 108
99 109
99 113
99 115
99 116
99 117
99 4
99 7
99 11
99 12
99 13
99 15
99 18
99 20
99 21
99 22
101 102
101 103
101 104
101 105
101 106
101 107
101 108
101 110
101 114
101 116
101 117
101 118
101 121
101 5
101 8
101 12
101 13
101 16
101 19
101 21
101 22
101 23
102 103
102 104
102 105
102 106
102 107
102 108
102 112
102 115
102 117
102 118
102 119
102 121
102 4
102 6
102 9
102 13
102 17
102 20
102 22
102 23
102 24
103 104
103 105
103 106
103 107
103 108
103 113
103 116
103 118
103 119
103 120
103 121
103 4
103 5
103 7
103 10
103 18
103 21
103 23
103 24
103 26
104 105
104 106
104 107
104 108
104 109
104 114
104 117
104 119
104 120
104 4
104 5
104 6
104 8
104 11
104 15
104 19
104 22
104 24
104 26
105 106
105 107
105 108
105 109
105 110
105 115
105 118
105 120
105 5
105 6
105 7
105 9
105 12
105 15
105 16
105 20
105 23
105 26
106 107
106 108
106 109
106 110
106 112
106 116
106 119
106 6
106 7
106 8
106 10
106 13
106 15
106 16
106 17
106 21
106 24
107 108
107 110
107 112
107 113
107 117
107 120
107 121
107 7
107 8
107 9
107 11
107 16
107 17
107 18
107 22
107 26
108 109
108 112
108 113
108 114
108 118
108 4
108 8
108 9
108 10
108 12
108 15
108 17
108 18
108 19
108 23
109 110
109 112
109 113
109 114
109 115
109 116
109 117
109 118
109 119
109 120
109 4
109 6
109 7
109 8
109 12
109 17
109 21
109 22
109 23
109 26
110 112
110 113
110 114
110 115
110 116
110 117
110 118
110 119
110 120
110 5
110 7
110 8
110 9
110 13
110 15
110 18
110 22
110 23
110 24
112 113
112 114
112 115
112 116
112 117
112 118
112 119
112 120
112 121
112 6
112 8
112 9
112 10
112 16
112 19
112 23
112 24
112 26
113 114
113 115
113 116
113 117
113 118
113 119
113 120
113 4
113 7
113 9
113 10
113 11
113 15
113 17
113 20
113 24
113 26
114 115
114 116
114 117
114 118
114 119
114 120
114 5
114 8
114 10
114 11
114 12
114 15
114 16
114 18
114 21
114 26
115 116
115 117
115 118
115 119
115 120
115 6
115 9
115 11
115 12
115 13
115 15
115 16
115 17
115 19
115 22
116 117
116 118
116 119
116 120
116 121
116 7
116 10
116 12
116 13
116 16
116 17
116 18
116 20
116 23
117 118
117 119
117 120
117 121
117 4
117 8
117 11
117 13
117 17
117 18
117 19
117 21
117 24
118 119
118 120
118 121
118 4
118 5
118 9
118 12
118 18
118 19
118 20
118 22
118 26
119 120
119 4
119 5
119 6
119 10
119 13
119 15
119 19
119 20
119 21
119 23
120 121
120 5
120 6
120 7
120 11
120 16
120 20
120 21
120 22
120 24
121 4
121 5
121 6
121 7
121 8
121 9
121 10
121 11
121 12
121 13
121 16
121 18
121 19
121 20
121 24
4 5
4 6
4 7
4 8
4 9
4 10
4 11
4 12
4 13
4 17
4 19
4 20
4 21
4 26
5 6
5 7
5 8
5 9
5 10
5 11
5 12
5 13
5 15
5 18
5 20
5 21
5 22
6 7
6 8
6 9
6 10
6 11
6 12
6 13
6 16
6 19
6 21
6 22
6 23
7 8
7 9
7 10
7 11
7 12
7 13
7 17
7 20
7 22
7 23
7 24
8 9
8 10
8 11
8 12
8 13
8 18
8 21
8 23
8 24
8 26
9 10
9 11
9 12
9 13
9 15
9 19
9 22
9 24
9 26
10 11
10 12
10 13
10 15
10 16
10 20
10 23
10 26
11 12
11 13
11 15
11 16
11 17
11 21
11 24
12 13
12 16
12 17
12 18
12 22
12 26
13 15
13 17
13 18
13 19
13 23
15 16
15 17
15 18
15 19
15 20
15 21
15 22
15 23
15 24
15 26
16 17
16 18
16 19
16 20
16 21
16 22
16 23
16 24
16 26
17 18
17 19
17 20
17 21
17 22
17 23
17 24
17 26
18 19
18 20
18 21
18 22
18 23
18 24
18 26
19 20
19 21
19 22
19 23
19 24
19 26
20 21
20 22
20 23
20 24
20 26
21 22
21 23
21 24
21 26
22 23
22 24
22 26
23 24
23 26
24 26
